p cnf 20 20
6 1 9 0
-12 16 2 0
-12 8 -4 0
-14 -13 -3 0
15 2 -20 0
-11 -6 -7 0
4 19 20 0
14 -1 12 0
15 16 -20 0
-1 -18 16 0
13 12 19 0
11 8 6 0
-7 9 2 0
-10 6 -19 0
-1 -13 -16 0
-13 1 10 0
7 -1 12 0
6 17 -13 0
19 -20 -18 0
2 9 6 0
